(declare-sort sk 0)
(declare-datatype list ((nil) (cons (head sk) (tail list))))
(declare-datatype Nat ((Z) (S (proj1-S Nat))))
(define-fun-rec
  take
  ((x Nat) (y list)) list
  (match x
    ((Z nil)
     ((S z)
      (match y
        ((nil nil)
         ((cons x2 x3) (cons x2 (take z x3)))))))))
(define-fun-rec
  len
  ((x list)) Nat
  (match x
    ((nil Z)
     ((cons y xs) (S (len xs))))))
(define-fun-rec
  |-2|
  ((x Nat) (y Nat)) Nat
  (match x
    ((Z Z)
     ((S z)
      (match y
        ((Z (S z))
         ((S x2) (|-2| z x2))))))))
(define-fun-rec
  ++
  ((x list) (y list)) list
  (match x
    ((nil y)
     ((cons z xs) (cons z (++ xs y))))))
(assert
  (not
    (forall ((n Nat) (xs list) (ys list))
      (= (take n (++ xs ys))
        (++ (take n xs) (take (|-2| n (len xs)) ys))))))
(check-sat)
